NAME: line_90_1
TYPE: TSP
COMMENT: line_90_1
DIMENSION: 90
EDGE_WEIGHT_TYPE: EUC_2D
NODE_COORD_SECTION
1 0.0 524.0
2 0.0 449.0
3 0.0 427.0
4 0.0 126.0
5 0.0 5.0
6 0.0 254.0
7 0.0 233.0
8 0.0 508.0
9 0.0 317.0
10 0.0 381.0
11 0.0 672.0
12 0.0 769.0
13 0.0 540.0
14 0.0 807.0
15 0.0 610.0
16 0.0 681.0
17 0.0 553.0
18 0.0 233.0
19 0.0 20.0
20 0.0 691.0
21 0.0 863.0
22 0.0 15.0
23 0.0 589.0
24 0.0 568.0
25 0.0 554.0
26 0.0 494.0
27 0.0 781.0
28 0.0 766.0
29 0.0 151.0
30 0.0 124.0
31 0.0 649.0
32 0.0 676.0
33 0.0 52.0
34 0.0 222.0
35 0.0 819.0
36 0.0 822.0
37 0.0 613.0
38 0.0 557.0
39 0.0 284.0
40 0.0 669.0
41 0.0 574.0
42 0.0 33.0
43 0.0 571.0
44 0.0 530.0
45 0.0 93.0
46 0.0 767.0
47 0.0 84.0
48 0.0 493.0
49 0.0 719.0
50 0.0 35.0
51 0.0 499.0
52 0.0 545.0
53 0.0 856.0
54 0.0 382.0
55 0.0 239.0
56 0.0 671.0
57 0.0 381.0
58 0.0 457.0
59 0.0 295.0
60 0.0 386.0
61 0.0 495.0
62 0.0 355.0
63 0.0 344.0
64 0.0 611.0
65 0.0 716.0
66 0.0 687.0
67 0.0 581.0
68 0.0 746.0
69 0.0 605.0
70 0.0 598.0
71 0.0 92.0
72 0.0 476.0
73 0.0 324.0
74 0.0 186.0
75 0.0 99.0
76 0.0 701.0
77 0.0 658.0
78 0.0 815.0
79 0.0 130.0
80 0.0 745.0
81 0.0 196.0
82 0.0 747.0
83 0.0 500.0
84 0.0 838.0
85 0.0 172.0
86 0.0 658.0
87 0.0 509.0
88 0.0 798.0
89 0.0 728.0
90 0.0 856.0
